p cnf 13 21
13 12 1 0
13 -6 2 0
13 -5 -2 0
-13 -4 -3 0
12 10 9 0
12 10 -4 0
-12 9 2 0
12 8 -2 0
-12 7 2 0
-11 10 9 0
-11 9 -8 0
-11 6 4 0
-11 -5 4 0
10 8 1 0
-9 -7 -4 0
9 -7 -2 0
-9 -6 2 0
8 7 4 0
7 -4 3 0
-7 2 -1 0
4 3 -2 0
